c description: Random 3-CNF over 15 variables and 80 clauses
c generator: CNFgen (0.9.0)
c copyright: (C) 2012-2020 Massimo Lauria <massimo.lauria@uniroma1.it>
c url: https://massimolauria.net/cnfgen
c
p cnf 15 80
7 -9 11 0
-7 -8 -9 0
-2 12 14 0
1 -3 14 0
-1 10 -12 0
3 -9 -14 0
-2 -11 -12 0
-4 7 -11 0
-4 -7 15 0
2 -7 -14 0
1 9 14 0
11 13 14 0
4 6 14 0
5 7 12 0
6 -8 10 0
6 -11 -15 0
-2 -10 12 0
1 12 -13 0
3 -6 -8 0
7 10 -13 0
7 8 -13 0
2 8 13 0
1 8 12 0
-6 -12 13 0
3 -5 -12 0
8 -9 12 0
-1 3 13 0
7 -8 11 0
6 -11 -13 0
1 4 10 0
-2 -13 -14 0
2 4 -5 0
-6 -9 13 0
7 10 -12 0
4 7 -11 0
-3 4 6 0
-1 5 11 0
-4 5 15 0
-8 -13 -14 0
-6 12 13 0
-3 -12 -15 0
-8 11 -13 0
2 9 -10 0
5 6 -14 0
3 6 -12 0
-6 -8 -11 0
-6 -7 -12 0
-2 -4 10 0
-4 8 -11 0
-3 6 -14 0
9 -13 14 0
-1 -8 13 0
1 -11 15 0
-9 -10 15 0
1 -3 -7 0
-2 -3 -14 0
-2 5 8 0
-5 -12 14 0
2 3 -12 0
6 7 15 0
4 -6 -7 0
-5 -8 -9 0
3 -5 9 0
-5 -8 11 0
1 2 4 0
1 -2 -4 0
-1 -2 12 0
-3 12 13 0
1 -5 13 0
2 -3 8 0
12 -13 -15 0
4 -5 -15 0
-1 -6 11 0
-4 -5 -7 0
-1 -7 9 0
-9 -11 14 0
6 -9 -12 0
-1 4 -6 0
-7 -9 -12 0
10 13 -15 0